2009-5-28
2009-7-1
2009-10-1
2009-10-3
2009-10-26
2009-12-25
2009-12-26
2010-1-1
2010-2-13
2010-2-15
2010-2-16
2010-4-2
2010-4-3
2010-4-5
2010-4-6
2010-5-1
2010-5-21
2010-6-16
2010-7-1
2010-9-23
2010-10-1
2010-10-16
2010-12-25
2010-12-27